
Gurobi 6.5.2 (mac64) logging started Sat Apr  8 17:19:08 2017


Gurobi 6.5.2 (mac64) logging started Sat Apr  8 17:20:46 2017


Gurobi 6.5.2 (mac64) logging started Sat Apr  8 17:23:27 2017


Gurobi 6.5.2 (mac64) logging started Sat Apr  8 17:35:46 2017


Gurobi 6.5.2 (mac64) logging started Sat Apr  8 19:46:35 2017


Gurobi 6.5.2 (mac64) logging started Sat Apr  8 19:52:07 2017


Gurobi 6.5.2 (mac64) logging started Sat Apr  8 19:57:33 2017


Gurobi 6.5.2 (mac64) logging started Sat Apr  8 20:06:15 2017


Gurobi 6.5.2 (mac64) logging started Sat Apr  8 20:10:30 2017


Gurobi 6.5.2 (mac64) logging started Sat Apr  8 20:11:05 2017


Gurobi 6.5.2 (mac64) logging started Sun Apr  9 10:28:46 2017


Gurobi 6.5.2 (mac64) logging started Sun Apr  9 10:31:25 2017


Gurobi 6.5.2 (mac64) logging started Sun Apr  9 10:32:29 2017


Gurobi 6.5.2 (mac64) logging started Sun Apr  9 12:27:47 2017


Gurobi 6.5.2 (mac64) logging started Sun Apr  9 12:29:45 2017


Gurobi 6.5.2 (mac64) logging started Sun Apr  9 12:30:15 2017


Gurobi 6.5.2 (mac64) logging started Sun Apr  9 12:31:11 2017


Gurobi 6.5.2 (mac64) logging started Sun Apr  9 12:31:48 2017


Gurobi 6.5.2 (mac64) logging started Sun Apr  9 12:32:10 2017


Gurobi 6.5.2 (mac64) logging started Sun Apr  9 12:32:46 2017


Gurobi 6.5.2 (mac64) logging started Sun Apr  9 12:33:08 2017


Gurobi 6.5.2 (mac64) logging started Sun Apr  9 12:34:53 2017


Gurobi 6.5.2 (mac64) logging started Sun Apr  9 12:37:19 2017


Gurobi 6.5.2 (mac64) logging started Sun Apr  9 12:43:13 2017


Gurobi 6.5.2 (mac64) logging started Sun Apr  9 12:45:16 2017


Gurobi 6.5.2 (mac64) logging started Sun Apr  9 12:58:54 2017


Gurobi 6.5.2 (mac64) logging started Sun Apr  9 13:04:19 2017


Gurobi 6.5.2 (mac64) logging started Sun Apr  9 13:06:13 2017


Gurobi 6.5.2 (mac64) logging started Sun Apr  9 13:32:32 2017


Gurobi 6.5.2 (mac64) logging started Sun Apr  9 13:37:23 2017


Gurobi 6.5.2 (mac64) logging started Sun Apr  9 14:03:08 2017


Gurobi 6.5.2 (mac64) logging started Sun Apr  9 14:05:03 2017


Gurobi 6.5.2 (mac64) logging started Sun Apr  9 14:08:02 2017


Gurobi 6.5.2 (mac64) logging started Sun Apr  9 14:21:55 2017


Gurobi 6.5.2 (mac64) logging started Fri Apr 14 00:44:37 2017


Gurobi 6.5.2 (mac64) logging started Fri Apr 14 00:50:33 2017


Gurobi 6.5.2 (mac64) logging started Fri Apr 14 00:51:53 2017


Gurobi 6.5.2 (mac64) logging started Ven 14 avr 00:52:26 2017


Gurobi 6.5.2 (mac64) logging started Ven 14 avr 01:06:53 2017


Gurobi 6.5.2 (mac64) logging started Ven 14 avr 01:08:46 2017


Gurobi 6.5.2 (mac64) logging started Ven 14 avr 01:16:20 2017


Gurobi 6.5.2 (mac64) logging started Ven 14 avr 01:25:42 2017


Gurobi 6.5.2 (mac64) logging started Ven 14 avr 01:38:15 2017


Gurobi 6.5.2 (mac64) logging started Ven 14 avr 01:49:10 2017


Gurobi 6.5.2 (mac64) logging started Ven 14 avr 09:19:04 2017


Gurobi 6.5.2 (mac64) logging started Ven 14 avr 15:34:14 2017


Gurobi 6.5.2 (mac64) logging started Ven 14 avr 15:34:48 2017


Gurobi 6.5.2 (mac64) logging started Ven 14 avr 15:38:06 2017


Gurobi 6.5.2 (mac64) logging started Ven 14 avr 21:31:54 2017


Gurobi 6.5.2 (mac64) logging started Ven 14 avr 21:32:19 2017


Gurobi 6.5.2 (mac64) logging started Ven 14 avr 21:35:39 2017


Gurobi 6.5.2 (mac64) logging started Ven 14 avr 21:36:25 2017


Gurobi 6.5.2 (mac64) logging started Ven 14 avr 21:36:51 2017


Gurobi 6.5.2 (mac64) logging started Ven 14 avr 21:38:26 2017


Gurobi 6.5.2 (mac64) logging started Ven 14 avr 22:59:14 2017


Gurobi 6.5.2 (mac64) logging started Ven 14 avr 23:00:58 2017


Gurobi 6.5.2 (mac64) logging started Ven 14 avr 23:42:01 2017


Gurobi 6.5.2 (mac64) logging started Ven 14 avr 23:43:45 2017


Gurobi 6.5.2 (mac64) logging started Ven 14 avr 23:44:05 2017


Gurobi 6.5.2 (mac64) logging started Ven 14 avr 23:44:38 2017


Gurobi 6.5.2 (mac64) logging started Ven 14 avr 23:49:38 2017


Gurobi 6.5.2 (mac64) logging started Ven 14 avr 23:50:01 2017


Gurobi 6.5.2 (mac64) logging started Ven 14 avr 23:50:23 2017


Gurobi 6.5.2 (mac64) logging started Ven 14 avr 23:52:57 2017


Gurobi 6.5.2 (mac64) logging started Sam 15 avr 00:18:33 2017


Gurobi 6.5.2 (mac64) logging started Sam 15 avr 00:22:33 2017


Gurobi 6.5.2 (mac64) logging started Sam 15 avr 00:35:29 2017


Gurobi 6.5.2 (mac64) logging started Sam 15 avr 00:36:06 2017


Gurobi 6.5.2 (mac64) logging started Sam 15 avr 09:44:48 2017


Gurobi 6.5.2 (mac64) logging started Sam 15 avr 09:48:15 2017


Gurobi 6.5.2 (mac64) logging started Sam 15 avr 09:50:32 2017


Gurobi 6.5.2 (mac64) logging started Sam 15 avr 09:56:38 2017


Gurobi 6.5.2 (mac64) logging started Sam 15 avr 09:57:45 2017


Gurobi 6.5.2 (mac64) logging started Sam 15 avr 09:59:02 2017


Gurobi 6.5.2 (mac64) logging started Sam 15 avr 10:03:39 2017


Gurobi 6.5.2 (mac64) logging started Sam 15 avr 10:19:28 2017


Gurobi 6.5.2 (mac64) logging started Mar 18 avr 18:57:04 2017


Gurobi 6.5.2 (mac64) logging started Mar 18 avr 18:59:48 2017


Gurobi 6.5.2 (mac64) logging started Mar 18 avr 19:00:48 2017


Gurobi 6.5.2 (mac64) logging started Mar 18 avr 19:01:14 2017


Gurobi 6.5.2 (mac64) logging started Mar 18 avr 19:02:08 2017


Gurobi 6.5.2 (mac64) logging started Mar 18 avr 19:10:48 2017


Gurobi 6.5.2 (mac64) logging started Mar 18 avr 19:11:08 2017


Gurobi 6.5.2 (mac64) logging started Mar 18 avr 19:11:50 2017


Gurobi 6.5.2 (mac64) logging started Mar 18 avr 19:14:26 2017


Gurobi 6.5.2 (mac64) logging started Mar 18 avr 22:50:45 2017


Gurobi 6.5.2 (mac64) logging started Mar 18 avr 22:51:15 2017


Gurobi 6.5.2 (mac64) logging started Mar 18 avr 22:53:05 2017


Gurobi 6.5.2 (mac64) logging started Mar 18 avr 22:57:01 2017


Gurobi 6.5.2 (mac64) logging started Mar 18 avr 23:06:54 2017


Gurobi 6.5.2 (mac64) logging started Mar 18 avr 23:14:08 2017


Gurobi 6.5.2 (mac64) logging started Mar 18 avr 23:15:05 2017


Gurobi 6.5.2 (mac64) logging started Mar 18 avr 23:15:41 2017


Gurobi 6.5.2 (mac64) logging started Mar 18 avr 23:16:42 2017


Gurobi 6.5.2 (mac64) logging started Mar 18 avr 23:21:52 2017


Gurobi 6.5.2 (mac64) logging started Mar 18 avr 23:23:03 2017


Gurobi 6.5.2 (mac64) logging started Mar 18 avr 23:35:37 2017


Gurobi 6.5.2 (mac64) logging started Mar 18 avr 23:36:05 2017


Gurobi 6.5.2 (mac64) logging started Mar 18 avr 23:38:51 2017


Gurobi 6.5.2 (mac64) logging started Mar 18 avr 23:58:33 2017


Gurobi 6.5.2 (mac64) logging started Mer 19 avr 00:17:03 2017


Gurobi 6.5.2 (mac64) logging started Mer 19 avr 00:29:51 2017


Gurobi 6.5.2 (mac64) logging started Lun 24 avr 13:28:55 2017


Gurobi 6.5.2 (mac64) logging started Lun 24 avr 13:29:20 2017


Gurobi 6.5.2 (mac64) logging started Lun 24 avr 13:29:48 2017


Gurobi 6.5.2 (mac64) logging started Lun 24 avr 13:32:43 2017


Gurobi 6.5.2 (mac64) logging started Lun 24 avr 13:37:53 2017


Gurobi 6.5.2 (mac64) logging started Lun 24 avr 13:41:59 2017


Gurobi 6.5.2 (mac64) logging started Lun 24 avr 13:44:56 2017


Gurobi 6.5.2 (mac64) logging started Lun 24 avr 13:47:37 2017


Gurobi 6.5.2 (mac64) logging started Lun 24 avr 16:24:56 2017


Gurobi 6.5.2 (mac64) logging started Lun 24 avr 16:34:41 2017


Gurobi 6.5.2 (mac64) logging started Lun 28 aoû 12:02:13 2017


Gurobi 6.5.2 (mac64) logging started Lun 28 aoû 12:02:58 2017


Gurobi 6.5.2 (mac64) logging started Lun 28 aoû 12:03:32 2017


Gurobi 6.5.2 (mac64) logging started Lun 28 aoû 12:04:01 2017


Gurobi 6.5.2 (mac64) logging started Lun 28 aoû 12:04:20 2017


Gurobi 6.5.2 (mac64) logging started Lun 28 aoû 12:05:21 2017


Gurobi 6.5.2 (mac64) logging started Lun 28 aoû 12:14:20 2017


Gurobi 6.5.2 (mac64) logging started Lun 28 aoû 12:17:47 2017


Gurobi 6.5.2 (mac64) logging started Lun 28 aoû 12:24:18 2017


Gurobi 6.5.2 (mac64) logging started Lun 28 aoû 15:05:51 2017


Gurobi 6.5.2 (mac64) logging started Lun 28 aoû 15:06:35 2017


Gurobi 6.5.2 (mac64) logging started Lun 28 aoû 15:12:15 2017


Gurobi 6.5.2 (mac64) logging started Lun 28 aoû 15:12:59 2017


Gurobi 6.5.2 (mac64) logging started Lun 28 aoû 15:14:21 2017


Gurobi 6.5.2 (mac64) logging started Lun 28 aoû 15:16:37 2017


Gurobi 6.5.2 (mac64) logging started Lun 28 aoû 15:20:49 2017


Gurobi 6.5.2 (mac64) logging started Lun 28 aoû 15:26:07 2017


Gurobi 6.5.2 (mac64) logging started Lun 28 aoû 15:27:43 2017


Gurobi 6.5.2 (mac64) logging started Lun 28 aoû 16:08:37 2017


Gurobi 6.5.2 (mac64) logging started Lun 28 aoû 16:13:44 2017


Gurobi 6.5.2 (mac64) logging started Lun 28 aoû 16:14:53 2017


Gurobi 6.5.2 (mac64) logging started Lun 28 aoû 16:19:34 2017


Gurobi 6.5.2 (mac64) logging started Lun 28 aoû 16:22:00 2017


Gurobi 6.5.2 (mac64) logging started Lun 28 aoû 16:22:44 2017


Gurobi 6.5.2 (mac64) logging started Lun 28 aoû 16:23:29 2017


Gurobi 6.5.2 (mac64) logging started Lun 28 aoû 16:25:39 2017


Gurobi 6.5.2 (mac64) logging started Lun 28 aoû 16:26:27 2017


Gurobi 6.5.2 (mac64) logging started Lun 28 aoû 16:27:17 2017


Gurobi 6.5.2 (mac64) logging started Lun 28 aoû 16:30:17 2017


Gurobi 6.5.2 (mac64) logging started Lun 28 aoû 16:30:55 2017


Gurobi 6.5.2 (mac64) logging started Lun 28 aoû 16:32:48 2017


Gurobi 6.5.2 (mac64) logging started Lun 28 aoû 16:42:48 2017


Gurobi 6.5.2 (mac64) logging started Lun 28 aoû 16:50:01 2017


Gurobi 6.5.2 (mac64) logging started Lun 28 aoû 17:29:32 2017


Gurobi 6.5.2 (mac64) logging started Lun 28 aoû 17:49:56 2017


Gurobi 6.5.2 (mac64) logging started Lun 28 aoû 18:20:41 2017


Gurobi 6.5.2 (mac64) logging started Lun 28 aoû 18:35:43 2017


Gurobi 6.5.2 (mac64) logging started Lun 28 aoû 19:20:03 2017


Gurobi 6.5.2 (mac64) logging started Lun 28 aoû 22:22:41 2017


Gurobi 6.5.2 (mac64) logging started Lun 28 aoû 22:55:58 2017


Gurobi 6.5.2 (mac64) logging started Lun 28 aoû 22:58:05 2017


Gurobi 6.5.2 (mac64) logging started Lun 28 aoû 23:04:23 2017


Gurobi 6.5.2 (mac64) logging started Lun 28 aoû 23:10:57 2017


Gurobi 6.5.2 (mac64) logging started Lun 28 aoû 23:16:40 2017


Gurobi 6.5.2 (mac64) logging started Lun 28 aoû 23:18:35 2017


Gurobi 6.5.2 (mac64) logging started Lun 28 aoû 23:22:44 2017


Gurobi 6.5.2 (mac64) logging started Lun 28 aoû 23:25:10 2017


Gurobi 6.5.2 (mac64) logging started Lun 28 aoû 23:30:57 2017


Gurobi 6.5.2 (mac64) logging started Lun 28 aoû 23:33:50 2017


Gurobi 6.5.2 (mac64) logging started Lun 28 aoû 23:39:21 2017


Gurobi 6.5.2 (mac64) logging started Jeu 31 aoû 15:36:23 2017


Gurobi 6.5.2 (mac64) logging started Jeu 31 aoû 15:39:01 2017


Gurobi 6.5.2 (mac64) logging started Jeu 31 aoû 15:40:53 2017


Gurobi 6.5.2 (mac64) logging started Jeu 31 aoû 15:43:01 2017


Gurobi 6.5.2 (mac64) logging started Jeu 31 aoû 16:27:12 2017


Gurobi 6.5.2 (mac64) logging started Jeu 31 aoû 16:35:41 2017

